0 24168 
1 23452 
2 23446 
3 22988 
4 22898 
5 22850 
6 22796 
7 22324 
8 22020 
9 21996 
10 21912 
11 21728 
12 21620 
13 21430 
14 21302 
15 21274 
16 21182 
17 21122 
18 21080 
19 20900 
20 20810 
21 20492 
22 20312 
23 20226 
24 19932 
25 19862 
26 19840 
27 19810 
28 19798 
29 19706 
30 19628 
31 19590 
32 19526 
33 19492 
34 19342 
35 19264 
36 19002 
37 18954 
38 18900 
39 18884 
40 18794 
41 18670 
42 18666 
43 18336 
44 18170 
45 17956 
46 17846 
47 17650 
48 17516 
49 17494 
50 17368 
51 17266 
52 17256 
53 17220 
54 17122 
55 17114 
56 17092 
57 17036 
58 16964 
59 16812 
60 16774 
61 16612 
62 16584 
63 16532 
64 16508 
65 16462 
66 16382 
67 16344 
68 16234 
69 16156 
70 16132 
71 16098 
72 16074 
73 15988 
74 15738 
75 15708 
76 15530 
77 15406 
78 15382 
79 15002 
80 14808 
81 14452 
82 14406 
83 14126 
84 14098 
85 14062 
86 14008 
87 13956 
88 13826 
89 13704 
90 13668 
91 13510 
92 13334 
93 13264 
94 13206 
95 13164 
96 13128 
97 12998 
98 12926 
99 12664 
100 12548 
101 11840 
102 11830 
103 11558 
104 11516 
105 11506 
106 11356 
107 11328 
108 11258 
109 11110 
110 10978 
111 10958 
112 10946 
113 10830 
114 10758 
115 10750 
116 10674 
117 10598 
118 10542 
119 10474 
120 10334 
121 10296 
122 9930 
123 9822 
124 9726 
125 9622 
126 9596 
127 9188 
128 9066 
129 9040 
130 9010 
131 8970 
132 8930 
133 8856 
134 8692 
135 8602 
136 8522 
137 8488 
138 8472 
139 8442 
140 8432 
141 8372 
142 8350 
143 8092 
144 8082 
145 7954 
146 7936 
147 7912 
148 7820 
149 7718 
150 7608 
151 7424 
152 7366 
153 7346 
154 7202 
155 7062 
156 7000 
157 6990 
158 6980 
159 6948 
160 6948 
161 6948 
162 6802 
163 6792 
164 6300 
165 6258 
166 6214 
167 6148 
168 6042 
169 5866 
170 5800 
171 5782 
172 5764 
173 5708 
174 5654 
175 5586 
176 5406 
177 5396 
178 5318 
179 5306 
180 5306 
181 5270 
182 5270 
183 5270 
184 5270 
185 5270 
186 5270 
187 5270 
188 5270 
189 5270 
190 5270 
191 5270 
192 5270 
193 5270 
194 5270 
195 5270 
196 5270 
197 5270 
198 5270 
199 5270 
200 5270 
201 5270 
202 5270 
203 5270 
204 5270 
205 5270 
206 5270 
207 5270 
208 5270 
209 5270 
210 5270 
211 5270 
212 5270 
213 5270 
214 5270 
215 5270 
216 5270 
217 5270 
218 5156 
219 5156 
220 5156 
221 5156 
222 5156 
223 5156 
224 5156 
225 5156 
226 5156 
227 5156 
228 5156 
229 5156 
230 5156 
231 5156 
232 5156 
233 5156 
234 5156 
235 5156 
236 5156 
237 5156 
238 5156 
239 5156 
240 5156 
241 5156 
242 5156 
243 5156 
244 5156 
245 5156 
246 5156 
247 5156 
248 5156 
249 5156 
250 5156 
251 5156 
252 5156 
253 5156 
254 5156 
255 5156 
256 5156 
257 5156 
258 5156 
259 5156 
260 5156 
261 5156 
262 5156 
263 5156 
264 5156 
265 5156 
266 5156 
267 5156 
268 5156 
269 5156 
270 5156 
271 5156 
272 5156 
273 5156 
274 5156 
275 5156 
276 5156 
277 5156 
278 5156 
279 5156 
280 5156 
281 5156 
282 5156 
283 5156 
284 5156 
285 5156 
286 5156 
287 5156 
288 5156 
289 5156 
290 5156 
291 5156 
292 5156 
293 5156 
294 5156 
295 5156 
296 5156 
297 5156 
298 5156 
299 5156 
300 5156 
301 5156 
302 5156 
303 5156 
304 5156 
305 5156 
306 5156 
307 5156 
308 5156 
309 5156 
310 5156 
311 5156 
312 5156 
313 5156 
314 5156 
315 5156 
316 5156 
317 5156 
318 5156 
319 5156 
320 5156 
321 5156 
322 5156 
323 5156 
324 5156 
325 5156 
326 5156 
327 5156 
328 5156 
329 5156 
330 5156 
331 5156 
332 5156 
333 5156 
334 5156 
335 5156 
336 5156 
337 5156 
338 5156 
339 5156 
340 5156 
341 5156 
342 5156 
343 5156 
344 5156 
345 5156 
346 5156 
347 5156 
348 5156 
349 5156 
350 5156 
351 5156 
352 5156 
353 5156 
354 5156 
355 5156 
356 5156 
357 5156 
358 5156 
359 5156 
360 5156 
361 5156 
362 5156 
363 5156 
364 5156 
365 5156 
366 5156 
367 5156 
368 5156 
369 5156 
370 5156 
371 5156 
372 5156 
373 5156 
374 5156 
375 5156 
376 5156 
377 5156 
378 5156 
379 5156 
380 5156 
381 5156 
382 5156 
383 5156 
384 5156 
385 5156 
386 5156 
387 5156 
388 5156 
389 5156 
390 5156 
391 5156 
392 5156 
393 5156 
394 5156 
395 5156 
396 5156 
397 5156 
398 5156 
399 5156 
400 5156 
401 5156 
402 5156 
403 5156 
404 5156 
405 5156 
406 5156 
407 5156 
408 5156 
409 5156 
410 5156 
411 5156 
412 5156 
413 5156 
414 5156 
415 5156 
416 5156 
417 5156 
418 5156 
419 5156 
420 5156 
421 5156 
422 5156 
423 5156 
424 5156 
425 5156 
426 5156 
427 5156 
428 5156 
429 5156 
430 5156 
431 5156 
432 5156 
433 5156 
434 5156 
435 5156 
436 5156 
437 5156 
438 5156 
439 5156 
440 5156 
441 5156 
442 5156 
443 5156 
444 5156 
445 5156 
446 5156 
447 5156 
448 5156 
449 5156 
450 5156 
451 5156 
452 5156 
453 5156 
454 5156 
455 5156 
456 5156 
457 5156 
458 5156 
459 5156 
460 5156 
461 5156 
462 5156 
463 5156 
464 5156 
465 5156 
466 5156 
467 5156 
468 5156 
469 5156 
470 5156 
471 5156 
472 5156 
473 5156 
474 5156 
475 5156 
476 5156 
477 5156 
478 5156 
479 5156 
480 5156 
481 5156 
482 5156 
483 5156 
484 5156 
485 5156 
486 5156 
487 5156 
488 5156 
489 5156 
490 5156 
491 5156 
492 5156 
493 5156 
494 5156 
495 5156 
496 5156 
497 5156 
498 5156 
499 5156 
500 5156 
501 5156 
502 5156 
503 5156 
504 5156 
505 5156 
506 5156 
507 5156 
508 5156 
509 5156 
510 5156 
511 5156 
512 5156 
513 5156 
514 5156 
515 5156 
516 5156 
517 5156 
518 5156 
519 5156 
520 5156 
521 5156 
522 5156 
523 5156 
524 5156 
525 5156 
526 5156 
527 5156 
528 5156 
529 5156 
530 5156 
531 5156 
532 5156 
533 5156 
534 5156 
535 5156 
536 5156 
537 5156 
538 5156 
539 5156 
540 5156 
541 5156 
542 5156 
543 5156 
544 5156 
545 5156 
546 5156 
547 5156 
548 5156 
549 5156 
550 5156 
551 5156 
552 5156 
553 5156 
554 5156 
555 5156 
556 5156 
557 5156 
558 5156 
559 5156 
560 5156 
561 5156 
562 5156 
563 5156 
564 5156 
565 5156 
566 5156 
567 5156 
568 5156 
569 5156 
570 5156 
571 5156 
572 5156 
573 5156 
574 5156 
575 5156 
576 5156 
577 5156 
578 5156 
579 5156 
580 5156 
581 5156 
582 5156 
583 5156 
584 5156 
585 5156 
586 5156 
587 5156 
588 5156 
589 5156 
590 5156 
591 5156 
592 5156 
593 5156 
594 5156 
595 5156 
596 5156 
597 5156 
598 5156 
599 5156 
600 5156 
601 5156 
602 5156 
603 5156 
604 5156 
605 5156 
606 5156 
607 5156 
608 5156 
609 5156 
610 5156 
611 5156 
612 5156 
613 5156 
614 5156 
615 5156 
616 5156 
617 5156 
618 5156 
619 5156 
620 5156 
621 5156 
622 5156 
623 5156 
624 5156 
625 5156 
626 5156 
627 5156 
628 5156 
629 5156 
630 5156 
631 5156 
632 5156 
633 5156 
634 5156 
635 5156 
636 5156 
637 5156 
638 5156 
639 5156 
640 5156 
641 5156 
642 5156 
643 5156 
644 5156 
645 5156 
646 5156 
647 5156 
648 5156 
649 5156 
650 5156 
651 5156 
652 5156 
653 5156 
654 5156 
655 5156 
656 5156 
657 5156 
658 5156 
659 5156 
660 5156 
661 5156 
662 5156 
663 5156 
664 5156 
665 5156 
666 5156 
667 5156 
668 5156 
669 5156 
670 5156 
671 5156 
672 5156 
673 5156 
674 5156 
675 5156 
676 5156 
677 5156 
678 5156 
679 5156 
680 5156 
681 5156 
682 5156 
683 5156 
684 5156 
685 5156 
686 5156 
687 5156 
688 5156 
689 5156 
690 5156 
691 5156 
692 5156 
693 5156 
694 5156 
695 5156 
696 5156 
697 5156 
698 5156 
699 5156 
700 5156 
701 5156 
702 5156 
703 5156 
704 5156 
705 5156 
706 5156 
707 5156 
708 5156 
709 5156 
710 5156 
711 5156 
712 5156 
713 5156 
714 5156 
715 5156 
716 5156 
717 5156 
718 5156 
719 5156 
720 5156 
721 5156 
722 5156 
723 5156 
724 5156 
725 5156 
726 5156 
727 5156 
728 5156 
729 5156 
730 5156 
731 5156 
732 5156 
733 5156 
734 5156 
735 5156 
736 5156 
737 5156 
738 5156 
739 5156 
740 5156 
741 5156 
742 5156 
743 5156 
744 5156 
745 5156 
746 5156 
747 5156 
748 5156 
749 5156 
750 5156 
751 5156 
752 5156 
753 5156 
754 5156 
755 5156 
756 5156 
757 5156 
758 5156 
759 5156 
760 5156 
761 5156 
762 5156 
763 5156 
764 5156 
765 5156 
766 5156 
767 5156 
768 5156 
769 5156 
770 5156 
771 5156 
772 5156 
773 5156 
774 5156 
775 5156 
776 5156 
777 5156 
778 5156 
779 5156 
780 5156 
781 5156 
782 5156 
783 5156 
784 5156 
785 5156 
786 5156 
787 5156 
788 5156 
789 5156 
790 5156 
791 5156 
792 5156 
793 5156 
794 5156 
795 5156 
796 5156 
797 5156 
798 5156 
799 5156 
800 5156 
801 5156 
802 5156 
803 5156 
804 5156 
805 5156 
806 5156 
807 5156 
808 5156 
809 5156 
810 5156 
811 5156 
812 5156 
813 5156 
814 5156 
815 5156 
816 5156 
817 5156 
818 5156 
819 5156 
820 5156 
821 5156 
822 5156 
823 5156 
824 5156 
825 5156 
826 5156 
827 5156 
828 5156 
829 5156 
830 5156 
831 5156 
832 5156 
833 5156 
834 5156 
835 5156 
836 5156 
837 5156 
838 5156 
839 5156 
840 5156 
841 5156 
842 5156 
843 5156 
844 5156 
845 5156 
846 5156 
847 5156 
848 5156 
849 5156 
850 5156 
851 5156 
852 5156 
853 5156 
854 5156 
855 5156 
856 5156 
857 5156 
858 5156 
859 5156 
860 5156 
861 5156 
862 5156 
863 5156 
864 5156 
865 5156 
866 5156 
867 5156 
868 5156 
869 5156 
870 5156 
871 5156 
872 5156 
873 5156 
874 5156 
875 5156 
876 5156 
877 5156 
878 5156 
879 5156 
880 5156 
881 5156 
882 5156 
883 5156 
884 5156 
885 5156 
886 5156 
887 5156 
888 5156 
889 5156 
890 5156 
891 5156 
892 5156 
893 5156 
894 5156 
895 5156 
896 5156 
897 5156 
898 5156 
899 5156 
900 5156 
901 5156 
902 5156 
903 5156 
904 5156 
905 5156 
906 5156 
907 5156 
908 5156 
909 5156 
910 5156 
911 5156 
912 5156 
913 5156 
914 5156 
915 5156 
916 5156 
917 5156 
918 5156 
919 5156 
920 5156 
921 5156 
922 5156 
923 5156 
924 5156 
925 5156 
926 5156 
927 5156 
928 5156 
929 5156 
930 5156 
931 5156 
932 5156 
933 5156 
934 5156 
935 5156 
936 5156 
937 5156 
938 5156 
939 5156 
940 5156 
941 5156 
942 5156 
943 5156 
944 5156 
945 5156 
946 5156 
947 5156 
948 5156 
949 5156 
950 5156 
951 5156 
952 5156 
953 5156 
954 5156 
955 5156 
956 5156 
957 5156 
958 5156 
959 5156 
960 5156 
961 5156 
962 5156 
963 5156 
964 5156 
965 5156 
966 5156 
967 5156 
968 5156 
969 5156 
970 5156 
971 5156 
972 5156 
973 5156 
974 5156 
975 5156 
976 5156 
977 5156 
978 5156 
979 5156 
980 5156 
981 5156 
982 5156 
983 5156 
984 5156 
985 5156 
986 5156 
987 5156 
988 5156 
989 5156 
990 5156 
991 5156 
992 5156 
993 5156 
994 5156 
995 5156 
996 5156 
997 5156 
998 5156 
999 5156 
1000 5156 
1001 5156 
1002 5156 
1003 5156 
1004 5156 
1005 5156 
1006 5156 
1007 5156 
1008 5156 
1009 5156 
1010 5156 
1011 5156 
1012 5156 
1013 5156 
1014 5156 
1015 5156 
1016 5156 
1017 5156 
1018 5156 
1019 5156 
1020 5156 
1021 5156 
1022 5156 
1023 5156 
1024 5156 
1025 5156 
1026 5156 
1027 5156 
1028 5156 
1029 5156 
1030 5156 
1031 5156 
1032 5156 
1033 5156 
1034 5156 
1035 5156 
1036 5156 
1037 5156 
1038 5156 
1039 5156 
1040 5156 
1041 5156 
1042 5156 
1043 5156 
1044 5156 
1045 5156 
1046 5156 
1047 5156 
1048 5156 
1049 5156 
1050 5156 
1051 5156 
1052 5156 
1053 5156 
1054 5156 
1055 5156 
1056 5156 
1057 5156 
1058 5156 
1059 5156 
1060 5156 
1061 5156 
1062 5156 
1063 5156 
1064 5156 
1065 5156 
1066 5156 
1067 5156 
1068 5156 
1069 5156 
1070 5156 
1071 5156 
1072 5156 
1073 5156 
1074 5156 
1075 5156 
1076 5156 
1077 5156 
1078 5156 
1079 5156 
1080 5156 
1081 5156 
1082 5156 
1083 5156 
1084 5156 
1085 5156 
1086 5156 
1087 5156 
1088 5156 
1089 5156 
1090 5156 
1091 5156 
1092 5156 
1093 5156 
1094 5156 
1095 5156 
1096 5156 
1097 5156 
1098 5156 
1099 5156 
1100 5156 
1101 5156 
1102 5156 
1103 5156 
1104 5156 
1105 5156 
1106 5156 
1107 5156 
1108 5156 
1109 5156 
1110 5156 
1111 5156 
1112 5156 
1113 5156 
1114 5156 
1115 5156 
1116 5156 
1117 5156 
1118 5156 
1119 5156 
1120 5156 
1121 5156 
1122 5156 
1123 5156 
1124 5156 
1125 5156 
1126 5156 
1127 5156 
1128 5156 
1129 5156 
1130 5156 
1131 5156 
1132 5156 
1133 5156 
1134 5156 
1135 5156 
1136 5156 
1137 5156 
1138 5156 
1139 5156 
1140 5156 
1141 5156 
1142 5156 
1143 5156 
1144 5156 
1145 5156 
1146 5156 
1147 5156 
1148 5156 
1149 5156 
1150 5156 
1151 5156 
1152 5156 
1153 5156 
1154 5156 
1155 5156 
1156 5156 
1157 5156 
1158 5156 
1159 5156 
1160 5156 
1161 5156 
1162 5156 
1163 5156 
1164 5156 
1165 5156 
1166 5156 
1167 5156 
1168 5156 
1169 5156 
1170 5156 
1171 5156 
1172 5156 
1173 5156 
1174 5156 
1175 5156 
1176 5156 
1177 5156 
1178 5156 
1179 5156 
1180 5156 
1181 5156 
1182 5156 
1183 5156 
1184 5156 
1185 5156 
1186 5156 
1187 5156 
1188 5156 
1189 5156 
1190 5156 
1191 5156 
1192 5156 
1193 5156 
1194 5156 
1195 5156 
1196 5156 
1197 5156 
1198 5156 
1199 5156 
1200 5156 
1201 5156 
1202 5156 
1203 5156 
1204 5156 
1205 5156 
1206 5156 
1207 5156 
1208 5156 
1209 5156 
1210 5156 
1211 5156 
1212 5156 
1213 5156 
1214 5156 
1215 5156 
1216 5156 
1217 5156 
1218 5156 
1219 5156 
1220 5156 
1221 5156 
1222 5156 
1223 5156 
1224 5156 
1225 5156 
1226 5156 
1227 5156 
1228 5156 
1229 5156 
1230 5156 
1231 5156 
1232 5156 
1233 5156 
1234 5156 
1235 5156 
1236 5156 
1237 5156 
1238 5156 
1239 5156 
1240 5156 
1241 5156 
1242 5156 
1243 5156 
1244 5156 
1245 5156 
1246 5156 
1247 5156 
1248 5156 
1249 5156 
1250 5156 
1251 5156 
1252 5156 
1253 5156 
1254 5156 
1255 5156 
1256 5156 
1257 5156 
1258 5156 
1259 5156 
1260 5156 
1261 5156 
1262 5156 
1263 5156 
1264 5156 
1265 5156 
1266 5156 
1267 5156 
1268 5156 
1269 5156 
1270 5156 
1271 5156 
1272 5156 
1273 5156 
1274 5156 
1275 5156 
1276 5156 
1277 5156 
1278 5156 
1279 5156 
1280 5156 
1281 5156 
1282 5156 
1283 5156 
1284 5156 
1285 5156 
1286 5156 
1287 5156 
1288 5156 
1289 5156 
1290 5156 
1291 5156 
1292 5156 
1293 5156 
1294 5156 
1295 5156 
1296 5156 
1297 5156 
1298 5156 
1299 5156 
1300 5156 
1301 5156 
1302 5156 
1303 5156 
1304 5156 
1305 5156 
1306 5156 
1307 5156 
1308 5156 
1309 5156 
1310 5156 
1311 5156 
1312 5156 
1313 5156 
1314 5156 
1315 5156 
1316 5156 
1317 5156 
1318 5156 
1319 5156 
1320 5156 
1321 5156 
1322 5156 
1323 5156 
1324 5156 
1325 5156 
1326 5156 
1327 5156 
1328 5156 
1329 5156 
1330 5156 
1331 5156 
1332 5156 
1333 5156 
1334 5156 
1335 5156 
1336 5156 
1337 5156 
1338 5156 
1339 5156 
1340 5156 
1341 5156 
1342 5156 
1343 5156 
1344 5156 
1345 5156 
1346 5156 
1347 5156 
1348 5156 
1349 5156 
1350 5156 
1351 5156 
1352 5156 
1353 5156 
1354 5156 
1355 5156 
1356 5156 
1357 5156 
1358 5156 
1359 5156 
1360 5156 
1361 5156 
1362 5156 
1363 5156 
1364 5156 
1365 5156 
1366 5156 
1367 5156 
1368 5156 
1369 5156 
1370 5156 
1371 5156 
1372 5156 
1373 5156 
1374 5156 
1375 5156 
1376 5156 
1377 5156 
1378 5156 
1379 5156 
1380 5156 
1381 5156 
1382 5156 
1383 5156 
1384 5156 
1385 5156 
1386 5156 
1387 5156 
1388 5156 
1389 5156 
1390 5156 
1391 5156 
1392 5156 
1393 5156 
1394 5156 
1395 5156 
1396 5156 
1397 5156 
1398 5156 
1399 5156 
1400 5156 
1401 5156 
1402 5156 
1403 5156 
1404 5156 
1405 5156 
1406 5156 
1407 5156 
1408 5156 
1409 5156 
1410 5156 
1411 5156 
1412 5156 
1413 5156 
1414 5156 
1415 5156 
1416 5156 
1417 5156 
1418 5156 
1419 5156 
1420 5156 
1421 5156 
1422 5156 
1423 5156 
1424 5156 
1425 5156 
1426 5156 
1427 5156 
1428 5156 
1429 5156 
1430 5156 
1431 5156 
1432 5156 
1433 5156 
1434 5156 
1435 5156 
1436 5156 
1437 5156 
1438 5156 
1439 5156 
1440 5156 
1441 5156 
1442 5156 
1443 5156 
1444 5156 
1445 5156 
1446 5156 
1447 5156 
1448 5156 
1449 5156 
1450 5156 
1451 5156 
1452 5156 
1453 5156 
1454 5156 
1455 5156 
1456 5156 
1457 5156 
1458 5156 
1459 5156 
1460 5156 
1461 5156 
1462 5156 
1463 5156 
1464 5156 
1465 5156 
1466 5156 
1467 5156 
1468 5156 
1469 5156 
1470 5156 
1471 5156 
1472 5156 
1473 5156 
1474 5156 
1475 5156 
1476 5156 
1477 5156 
1478 5156 
1479 5156 
1480 5156 
1481 5156 
1482 5156 
1483 5156 
1484 5156 
1485 5156 
1486 5156 
1487 5156 
1488 5156 
1489 5156 
1490 5156 
1491 5156 
1492 5156 
1493 5156 
1494 5156 
1495 5156 
1496 5156 
1497 5156 
1498 5156 
1499 5156 
1500 5156 
1501 5156 
1502 5156 
1503 5156 
1504 5156 
1505 5156 
1506 5156 
1507 5156 
1508 5156 
1509 5156 
1510 5156 
1511 5156 
1512 5156 
1513 5156 
1514 5156 
1515 5156 
1516 5156 
1517 5156 
1518 5156 
1519 5156 
1520 5156 
1521 5156 
1522 5156 
1523 5156 
1524 5156 
1525 5156 
1526 5156 
1527 5156 
1528 5156 
1529 5156 
1530 5156 
1531 5156 
1532 5156 
1533 5156 
1534 5156 
1535 5156 
1536 5156 
1537 5156 
1538 5156 
1539 5156 
1540 5156 
1541 5156 
1542 5156 
1543 5156 
1544 5156 
1545 5156 
1546 5156 
1547 5156 
1548 5156 
1549 5156 
1550 5156 
1551 5156 
1552 5156 
1553 5156 
1554 5156 
1555 5156 
1556 5156 
1557 5156 
1558 5156 
1559 5156 
1560 5156 
1561 5156 
1562 5156 
1563 5156 
1564 5156 
1565 5156 
1566 5156 
1567 5156 
1568 5156 
1569 5156 
1570 5156 
1571 5156 
1572 5156 
1573 5156 
1574 5156 
1575 5156 
1576 5156 
1577 5156 
1578 5156 
1579 5156 
1580 5156 
1581 5156 
1582 5156 
1583 5156 
1584 5156 
1585 5156 
1586 5156 
1587 5156 
1588 5156 
1589 5156 
1590 5156 
1591 5156 
1592 5156 
1593 5156 
1594 5156 
1595 5156 
1596 5156 
1597 5156 
1598 5156 
1599 5156 
1600 5156 
1601 5156 
1602 5156 
1603 5156 
1604 5156 
1605 5156 
1606 5156 
1607 5156 
1608 5156 
1609 5156 
1610 5156 
1611 5156 
1612 5156 
1613 5156 
1614 5156 
1615 5156 
1616 5156 
1617 5156 
1618 5156 
1619 5156 
1620 5156 
1621 5156 
1622 5156 
1623 5156 
1624 5156 
1625 5156 
1626 5156 
1627 5156 
1628 5156 
1629 5156 
1630 5156 
1631 5156 
1632 5156 
1633 5156 
1634 5156 
1635 5156 
1636 5156 
1637 5156 
1638 5156 
1639 5156 
1640 5156 
1641 5156 
1642 5156 
1643 5156 
1644 5156 
1645 5156 
1646 5156 
1647 5156 
1648 5156 
1649 5156 
1650 5156 
1651 5156 
1652 5156 
1653 5156 
1654 5156 
1655 5156 
1656 5156 
1657 5156 
1658 5156 
1659 5156 
1660 5156 
1661 5156 
1662 5156 
1663 5156 
1664 5156 
1665 5156 
1666 5156 
1667 5156 
1668 5156 
1669 5156 
1670 5156 
1671 5156 
1672 5156 
1673 5156 
1674 5156 
1675 5156 
1676 5156 
1677 5156 
1678 5156 
1679 5156 
1680 5156 
1681 5156 
1682 5156 
1683 5156 
1684 5156 
1685 5156 
1686 5156 
1687 5156 
1688 5156 
1689 5156 
1690 5156 
1691 5156 
1692 5156 
1693 5156 
1694 5156 
1695 5156 
1696 5156 
1697 5156 
1698 5156 
1699 5156 
1700 5156 
1701 5156 
1702 5156 
1703 5156 
1704 5156 
1705 5156 
1706 5156 
1707 5156 
1708 5156 
1709 5156 
1710 5156 
1711 5156 
1712 5156 
1713 5156 
1714 5156 
1715 5156 
1716 5156 
1717 5156 
1718 5156 
1719 5156 
1720 5156 
1721 5156 
1722 5156 
1723 5156 
1724 5156 
1725 5156 
1726 5156 
1727 5156 
1728 5156 
1729 5156 
1730 5156 
1731 5156 
1732 5156 
1733 5156 
1734 5156 
1735 5156 
1736 5156 
1737 5156 
1738 5156 
1739 5156 
1740 5156 
1741 5156 
1742 5156 
1743 5156 
1744 5156 
1745 5156 
1746 5156 
1747 5156 
1748 5156 
1749 5156 
1750 5156 
1751 5156 
1752 5156 
1753 5156 
1754 5156 
1755 5156 
1756 5156 
1757 5156 
1758 5156 
1759 5156 
1760 5156 
1761 5156 
1762 5156 
1763 5156 
1764 5156 
1765 5156 
1766 5156 
1767 5156 
1768 5156 
1769 5156 
1770 5156 
1771 5156 
1772 5156 
1773 5156 
1774 5156 
1775 5156 
1776 5156 
1777 5156 
1778 5156 
1779 5156 
1780 5156 
1781 5156 
1782 5156 
1783 5156 
1784 5156 
1785 5156 
1786 5156 
1787 5156 
1788 5156 
1789 5156 
1790 5156 
1791 5156 
1792 5156 
1793 5156 
1794 5156 
1795 5156 
1796 5156 
1797 5156 
1798 5156 
1799 5156 
1800 5156 
1801 5156 
1802 5156 
1803 5156 
1804 5156 
1805 5156 
1806 5156 
1807 5156 
1808 5156 
1809 5156 
1810 5156 
1811 5156 
1812 5156 
1813 5156 
1814 5156 
1815 5156 
1816 5156 
1817 5156 
1818 5156 
1819 5156 
1820 5156 
1821 5156 
1822 5156 
1823 5156 
1824 5156 
1825 5156 
1826 5156 
1827 5156 
1828 5156 
1829 5156 
1830 5156 
1831 5156 
1832 5156 
1833 5156 
1834 5156 
1835 5156 
1836 5156 
1837 5156 
1838 5156 
1839 5156 
1840 5156 
1841 5156 
1842 5156 
1843 5156 
1844 5156 
1845 5156 
1846 5156 
1847 5156 
1848 5156 
1849 5156 
1850 5156 
1851 5156 
1852 5156 
1853 5156 
1854 5156 
1855 5156 
1856 5156 
1857 5156 
1858 5156 
1859 5156 
1860 5156 
1861 5156 
1862 5156 
1863 5156 
1864 5156 
1865 5156 
1866 5156 
1867 5156 
1868 5156 
1869 5156 
1870 5156 
1871 5156 
1872 5156 
1873 5156 
1874 5156 
1875 5156 
1876 5156 
1877 5156 
1878 5156 
1879 5156 
1880 5156 
1881 5156 
1882 5156 
1883 5156 
1884 5156 
1885 5156 
1886 5156 
1887 5156 
1888 5156 
1889 5156 
1890 5156 
1891 5156 
1892 5156 
1893 5156 
1894 5156 
1895 5156 
1896 5156 
1897 5156 
1898 5156 
1899 5156 
1900 5156 
1901 5156 
1902 5156 
1903 5156 
1904 5156 
1905 5156 
1906 5156 
1907 5156 
1908 5156 
1909 5156 
1910 5156 
1911 5156 
1912 5156 
1913 5156 
1914 5156 
1915 5156 
1916 5156 
1917 5156 
1918 5156 
1919 5156 
1920 5156 
1921 5156 
1922 5156 
1923 5156 
1924 5156 
1925 5156 
1926 5156 
1927 5156 
1928 5156 
1929 5156 
1930 5156 
1931 5156 
1932 5156 
1933 5156 
1934 5156 
1935 5156 
1936 5156 
1937 5156 
1938 5156 
1939 5156 
1940 5156 
1941 5156 
1942 5156 
1943 5156 
1944 5156 
1945 5156 
1946 5156 
1947 5156 
1948 5156 
1949 5156 
1950 5156 
1951 5156 
1952 5156 
1953 5156 
1954 5156 
1955 5156 
1956 5156 
1957 5156 
1958 5156 
1959 5156 
1960 5156 
1961 5156 
1962 5156 
1963 5156 
1964 5156 
1965 5156 
1966 5156 
1967 5156 
1968 5156 
1969 5156 
1970 5156 
1971 5156 
1972 5156 
1973 5156 
1974 5156 
1975 5156 
1976 5156 
1977 5156 
1978 5156 
1979 5156 
1980 5156 
1981 5156 
1982 5156 
1983 5156 
1984 5156 
1985 5156 
1986 5156 
1987 5156 
1988 5156 
1989 5156 
1990 5156 
1991 5156 
1992 5156 
1993 5156 
1994 5156 
1995 5156 
1996 5156 
1997 5156 
1998 5156 
1999 5156 
2000 5156 
2001 5156 
2002 5156 
2003 5156 
2004 5156 
2005 5156 
2006 5156 
2007 5156 
2008 5156 
2009 5156 
2010 5156 
2011 5156 
2012 5156 
2013 5156 
2014 5156 
2015 5156 
2016 5156 
2017 5156 
2018 5156 
2019 5156 
2020 5156 
2021 5156 
2022 5156 
2023 5156 
2024 5156 
2025 5156 
2026 5156 
2027 5156 
2028 5156 
2029 5156 
2030 5156 
2031 5156 
2032 5156 
2033 5156 
2034 5156 
2035 5156 
2036 5156 
2037 5156 
2038 5156 
2039 5156 
2040 5156 
2041 5156 
2042 5156 
2043 5156 
2044 5156 
2045 5156 
2046 5156 
2047 5156 
2048 5156 
2049 5156 
2050 5156 
2051 5156 
2052 5156 
2053 5156 
2054 5156 
2055 5156 
2056 5156 
2057 5156 
2058 5156 
2059 5156 
2060 5156 
2061 5156 
2062 5156 
2063 5156 
2064 5156 
2065 5156 
2066 5156 
2067 5156 
2068 5156 
2069 5156 
2070 5156 
2071 5156 
2072 5156 
2073 5156 
2074 5156 
2075 5156 
2076 5156 
2077 5156 
2078 5156 
2079 5156 
2080 5156 
2081 5156 
2082 5156 
2083 5156 
2084 5156 
2085 5156 
2086 5156 
2087 5156 
2088 5156 
2089 5156 
2090 5156 
2091 5156 
2092 5156 
2093 5156 
2094 5156 
2095 5156 
2096 5156 
2097 5156 
2098 5156 
2099 5156 
2100 5156 
2101 5156 
2102 5156 
2103 5156 
2104 5156 
2105 5156 
2106 5156 
2107 5156 
2108 5156 
2109 5156 
2110 5156 
2111 5156 
2112 5156 
2113 5156 
2114 5156 
2115 5156 
2116 5156 
2117 5156 
2118 5156 
2119 5156 
2120 5156 
2121 5156 
2122 5156 
2123 5156 
2124 5156 
2125 5156 
2126 5156 
2127 5156 
2128 5156 
2129 5156 
2130 5156 
2131 5156 
2132 5156 
2133 5156 
2134 5156 
2135 5156 
2136 5156 
2137 5156 
2138 5156 
2139 5156 
2140 5156 
2141 5156 
2142 5156 
2143 5156 
2144 5156 
2145 5156 
2146 5156 
2147 5156 
2148 5156 
2149 5156 
2150 5156 
2151 5156 
2152 5156 
2153 5156 
2154 5156 
2155 5156 
2156 5156 
2157 5156 
2158 5156 
2159 5156 
2160 5156 
2161 5156 
2162 5156 
2163 5156 
2164 5156 
2165 5156 
2166 5156 
2167 5156 
2168 5156 
2169 5156 
2170 5156 
2171 5156 
2172 5156 
2173 5156 
2174 5156 
2175 5156 
2176 5156 
2177 5156 
2178 5156 
2179 5156 
2180 5156 
2181 5156 
2182 5156 
2183 5156 
2184 5156 
2185 5156 
2186 5156 
2187 5156 
2188 5156 
2189 5156 
2190 5156 
2191 5156 
2192 5156 
2193 5156 
2194 5156 
2195 5156 
2196 5156 
2197 5156 
2198 5156 
2199 5156 
2200 5156 
2201 5156 
2202 5156 
2203 5156 
2204 5156 
2205 5156 
2206 5156 
2207 5156 
2208 5156 
2209 5156 
2210 5156 
2211 5156 
2212 5156 
2213 5156 
2214 5156 
2215 5156 
2216 5156 
2217 5156 
2218 5156 
2219 5156 
2220 5156 
2221 5156 
2222 5156 
2223 5156 
2224 5156 
2225 5156 
2226 5156 
2227 5156 
2228 5156 
2229 5156 
2230 5156 
2231 5156 
2232 5156 
2233 5156 
2234 5156 
2235 5156 
2236 5156 
2237 5156 
2238 5156 
2239 5156 
2240 5156 
2241 5156 
2242 5156 
2243 5156 
2244 5156 
2245 5156 
2246 5156 
2247 5156 
2248 5156 
2249 5156 
2250 5156 
2251 5156 
2252 5156 
2253 5156 
2254 5156 
2255 5156 
2256 5156 
2257 5156 
2258 5156 
2259 5156 
2260 5156 
2261 5156 
2262 5156 
2263 5156 
2264 5156 
2265 5156 
2266 5156 
2267 5156 
2268 5156 
2269 5156 
2270 5156 
2271 5156 
2272 5156 
2273 5156 
2274 5156 
2275 5156 
2276 5156 
2277 5156 
2278 5156 
2279 5156 
2280 5156 
2281 5156 
2282 5156 
2283 5156 
2284 5156 
2285 5156 
2286 5156 
2287 5156 
2288 5156 
2289 5156 
2290 5156 
2291 5156 
2292 5156 
2293 5156 
2294 5156 
2295 5156 
2296 5156 
2297 5156 
2298 5156 
2299 5156 
2300 5156 
2301 5156 
2302 5156 
2303 5156 
2304 5156 
2305 5156 
2306 5156 
2307 5156 
2308 5156 
2309 5156 
2310 5156 
2311 5156 
2312 5156 
2313 5156 
2314 5156 
2315 5156 
2316 5156 
2317 5156 
2318 5156 
2319 5156 
2320 5156 
2321 5156 
2322 5156 
2323 5156 
2324 5156 
2325 5156 
2326 5156 
2327 5156 
2328 5156 
2329 5156 
2330 5156 
2331 5156 
2332 5156 
2333 5156 
2334 5156 
2335 5156 
2336 5156 
2337 5156 
2338 5156 
2339 5156 
2340 5156 
2341 5156 
2342 5156 
2343 5156 
2344 5156 
2345 5156 
2346 5156 
2347 5156 
2348 5156 
2349 5156 
2350 5156 
2351 5156 
2352 5156 
2353 5156 
2354 5156 
2355 5156 
2356 5156 
2357 5156 
2358 5156 
2359 5156 
2360 5156 
2361 5156 
2362 5156 
2363 5156 
2364 5156 
2365 5156 
2366 5156 
2367 5156 
2368 5156 
2369 5156 
2370 5156 
2371 5156 
2372 5156 
2373 5156 
2374 5156 
2375 5156 
2376 5156 
2377 5156 
2378 5156 
2379 5156 
2380 5156 
2381 5156 
2382 5156 
2383 5156 
2384 5156 
2385 5156 
2386 5156 
2387 5156 
2388 5156 
2389 5156 
2390 5156 
2391 5156 
2392 5156 
2393 5156 
2394 5156 
2395 5156 
2396 5156 
2397 5156 
2398 5156 
2399 5156 
2400 5156 
2401 5156 
2402 5156 
2403 5156 
2404 5156 
2405 5156 
2406 5156 
2407 5156 
2408 5156 
2409 5156 
2410 5156 
2411 5156 
2412 5156 
2413 5156 
2414 5156 
2415 5156 
2416 5156 
2417 5156 
2418 5156 
2419 5156 
2420 5156 
2421 5156 
2422 5156 
2423 5156 
2424 5156 
2425 5156 
2426 5156 
2427 5156 
2428 5156 
2429 5156 
2430 5156 
2431 5156 
2432 5156 
2433 5156 
2434 5156 
2435 5156 
2436 5156 
2437 5156 
2438 5156 
2439 5156 
2440 5156 
2441 5156 
2442 5156 
2443 5156 
2444 5156 
2445 5156 
2446 5156 
2447 5156 
2448 5156 
2449 5156 
2450 5156 
2451 5156 
2452 5156 
2453 5156 
2454 5156 
2455 5156 
2456 5156 
2457 5156 
2458 5156 
2459 5156 
2460 5156 
2461 5156 
2462 5156 
2463 5156 
2464 5156 
2465 5156 
2466 5156 
2467 5156 
2468 5156 
2469 5156 
2470 5156 
2471 5156 
2472 5156 
2473 5156 
2474 5156 
2475 5156 
2476 5156 
2477 5156 
2478 5156 
2479 5156 
2480 5156 
2481 5156 
2482 5156 
2483 5156 
2484 5156 
2485 5156 
2486 5156 
2487 5156 
2488 5156 
2489 5156 
2490 5156 
2491 5156 
2492 5156 
2493 5156 
2494 5156 
2495 5156 
2496 5156 
2497 5156 
2498 5156 
2499 5156 
2500 5156 
2501 5156 
2502 5156 
2503 5156 
2504 5156 
2505 5156 
2506 5156 
2507 5156 
2508 5156 
2509 5156 
2510 5156 
2511 5156 
2512 5156 
2513 5156 
2514 5156 
2515 5156 
2516 5156 
2517 5156 
2518 5156 
2519 5156 
2520 5156 
2521 5156 
2522 5156 
2523 5156 
2524 5156 
2525 5156 
2526 5156 
2527 5156 
2528 5156 
2529 5156 
2530 5156 
2531 5156 
2532 5156 
2533 5156 
2534 5156 
2535 5156 
2536 5156 
2537 5156 
2538 5156 
2539 5156 
2540 5156 
2541 5156 
2542 5156 
2543 5156 
2544 5156 
2545 5156 
2546 5156 
2547 5156 
2548 5156 
2549 5156 
2550 5156 
2551 5156 
2552 5156 
2553 5156 
2554 5156 
2555 5156 
2556 5156 
2557 5156 
2558 5156 
2559 5156 
2560 5156 
2561 5156 
2562 5156 
2563 5156 
2564 5156 
2565 5156 
2566 5156 
2567 5156 
2568 5156 
2569 5156 
2570 5156 
2571 5156 
2572 5156 
2573 5156 
2574 5156 
2575 5156 
2576 5156 
2577 5156 
2578 5156 
2579 5156 
2580 5156 
2581 5156 
2582 5156 
2583 5156 
2584 5156 
2585 5156 
2586 5156 
2587 5156 
2588 5156 
2589 5156 
2590 5156 
2591 5156 
2592 5156 
2593 5156 
2594 5156 
2595 5156 
2596 5156 
2597 5156 
2598 5156 
2599 5156 
2600 5156 
2601 5156 
2602 5156 
2603 5156 
2604 5156 
2605 5156 
2606 5156 
2607 5156 
2608 5156 
2609 5156 
2610 5156 
2611 5156 
2612 5156 
2613 5156 
2614 5156 
2615 5156 
2616 5156 
2617 5156 
2618 5156 
2619 5156 
2620 5156 
2621 5156 
2622 5156 
2623 5156 
2624 5156 
2625 5156 
2626 5156 
2627 5156 
2628 5156 
2629 5156 
2630 5156 
2631 5156 
2632 5156 
2633 5156 
2634 5156 
2635 5156 
2636 5156 
2637 5156 
2638 5156 
2639 5156 
2640 5156 
2641 5156 
2642 5156 
2643 5156 
2644 5156 
2645 5156 
2646 5156 
2647 5156 
2648 5156 
2649 5156 
2650 5156 
2651 5156 
2652 5156 
2653 5156 
2654 5156 
2655 5156 
2656 5156 
2657 5156 
2658 5156 
2659 5156 
2660 5156 
2661 5156 
2662 5156 
2663 5156 
2664 5156 
2665 5156 
2666 5156 
2667 5156 
2668 5156 
2669 5156 
2670 5156 
2671 5156 
2672 5156 
2673 5156 
2674 5156 
2675 5156 
2676 5156 
2677 5156 
2678 5156 
2679 5156 
2680 5156 
2681 5156 
2682 5156 
2683 5156 
2684 5156 
2685 5156 
2686 5156 
2687 5156 
2688 5156 
2689 5156 
2690 5156 
2691 5156 
2692 5156 
2693 5156 
2694 5156 
2695 5156 
2696 5156 
2697 5156 
2698 5156 
2699 5156 
2700 5156 
2701 5156 
2702 5156 
2703 5156 
2704 5156 
2705 5156 
2706 5156 
2707 5156 
2708 5156 
2709 5156 
2710 5156 
2711 5156 
2712 5156 
2713 5156 
2714 5156 
2715 5156 
2716 5156 
2717 5156 
2718 5156 

